(declare-fun bvlambda_40_ ()Bool         )
(declare-fun bvlambda_41_ () (_ BitVec 6))
(declare-fun bvlambda_42_ () (_ BitVec 9))
(declare-fun a125 () (Array (_ BitVec 1) (_ BitVec 2)))
(assert
(let (($e47 (_ bv2046 14)))
(let (($e184 (concat false        bvlambda_41_)))
(let (($e185 (concat $e184 bvlambda_42_)))
(let (($e241 (select a125 true       )))
(let (($e260 (store a125 bvlambda_40_ $e241)))
(let (($e261 (select $e260 false)))
(let (($e263 (concat        $e47  $e261)))
(let (($e266      (bvult $e185 $e263)         ))
(let (($e622 (store a125 false $e241)))
(let (($e623 (select $e622 $e266       )))
(let (($e628 (   extract        $e623)))
                  (= $e628 $e266)
                                                                                                                                                                                                                                                                                                                                                                                                                                                                                                                                                                                                                                                                                                                                                                                           )    ))                                                                                                                                                                                                                                                                                                                                                                   )  ) ))                  )                                                       ))                                                                                  )                                              )
